
Gurobi 11.0.3 (linux64) logging started Sun Jun  1 12:25:24 2025

Set parameter LogFile to value "/home/yihong/Coding/SFLA+ED/PD_results_bigM100000_thread4/case24_ieee_rts_theta0.25_epsilon0.03_gurobi_seed90000_num_gen38_N_WDR80_load_scaling_factor1_FICA_T18.txt"
Set parameter TimeLimit to value 3600
Gurobi Optimizer version 11.0.3 build v11.0.3rc0 (linux64 - "Ubuntu 20.04.6 LTS")

CPU model: AMD EPYC 7532 32-Core Processor, instruction set [SSE2|AVX|AVX2]
Thread count: 64 physical cores, 128 logical processors, using up to 4 threads

Optimize a model with 173772 rows, 1449 columns and 13355712 nonzeros
Model fingerprint: 0x93a3230e
Model has 684 quadratic objective terms
Coefficient statistics:
  Matrix range     [3e-06, 6e+01]
  Objective range  [2e+01, 6e+01]
  QObjective range [4e-03, 2e-02]
  Bounds range     [0e+00, 0e+00]
  RHS range        [3e-02, 9e+02]
Presolve removed 156572 rows and 0 columns
Presolve time: 1.46s
Presolved: 17200 rows, 1449 columns, 737636 nonzeros
Presolved model has 684 quadratic objective terms
Ordering time: 0.08s

Barrier statistics:
 Dense cols : 1377
 AA' NZ     : 7.408e+05
 Factor NZ  : 9.824e+05 (roughly 16 MB of memory)
 Factor Ops : 8.919e+07 (less than 1 second per iteration)
 Threads    : 4

                  Objective                Residual
Iter       Primal          Dual         Primal    Dual     Compl     Time
   0   4.00684790e+08 -2.02938928e+08  3.65e+04 1.00e+03  9.95e+05     3s
   1   3.20567490e+08 -1.49643922e+08  3.13e+04 8.57e+02  8.54e+05     3s
   2   1.86354208e+08 -1.07168973e+08  2.10e+04 5.75e+02  5.82e+05     3s
   3   1.19857883e+08 -1.05685368e+08  1.49e+04 4.09e+02  4.46e+05     3s
   4   7.23903850e+07 -1.35117471e+08  9.94e+03 2.72e+02  3.50e+05     3s
   5   2.46550096e+07 -2.08435069e+08  3.90e+03 1.07e+02  1.81e+05     3s
   6   1.11739580e+07 -2.49252423e+08  1.84e+03 5.03e+01  1.12e+05     3s
   7   4.10175734e+06 -2.15402754e+08  6.48e+02 1.78e+01  4.94e+04     3s
   8   2.31545970e+06 -1.64829534e+08  3.35e+02 9.18e+00  2.71e+04     3s
   9   8.53427904e+05 -1.28497922e+08  7.39e+01 2.02e+00  1.12e+04     4s
  10   6.27643810e+05 -8.68096466e+07  3.32e+01 9.10e-01  6.38e+03     4s
  11   5.27159534e+05 -6.10829016e+07  1.51e+01 4.15e-01  4.01e+03     4s
  12   4.82090924e+05 -3.33089734e+07  7.05e+00 1.93e-01  2.07e+03     4s
  13   4.81659342e+05 -3.29246408e+07  6.97e+00 1.91e-01  2.05e+03     4s
  14   4.80915364e+05 -3.22278835e+07  6.84e+00 1.87e-01  2.01e+03     4s
  15   4.77524841e+05 -2.80806171e+07  6.22e+00 1.71e-01  1.83e+03     4s
  16   4.75464664e+05 -2.56287734e+07  5.83e+00 1.60e-01  1.71e+03     4s
  17   4.74399726e+05 -2.70787161e+07  5.64e+00 1.54e-01  1.73e+03     4s
  18   4.58180707e+05 -2.21518290e+07  2.41e+00 6.62e-02  1.31e+03     4s
  19   4.45034099e+05 -1.75868952e+06  3.68e-02 1.01e-03  1.15e+02     4s
  20   4.42789224e+05  1.50399369e+05  4.78e-03 1.31e-04  1.52e+01     4s
  21   4.33910534e+05  2.91334665e+05  1.66e-03 4.52e-05  7.39e+00     4s
  22   4.26627378e+05  3.43358928e+05  8.22e-04 2.25e-05  4.32e+00     4s
  23   4.20461083e+05  3.74042771e+05  3.67e-04 1.00e-05  2.41e+00     4s
  24   4.16545605e+05  3.90941087e+05  1.66e-04 4.54e-06  1.33e+00     4s
  25   4.13253019e+05  4.01273942e+05  3.30e-05 9.01e-07  6.21e-01     4s
  26   4.11764908e+05  4.07199841e+05  8.40e-06 2.29e-07  2.37e-01     4s
  27   4.11411060e+05  4.08481579e+05  1.39e-06 3.80e-08  1.52e-01     4s
  28   4.11027958e+05  4.10157554e+05  3.24e-07 8.86e-09  4.51e-02     4s
  29   4.10895860e+05  4.10746597e+05  1.91e-08 5.30e-10  7.74e-03     4s
  30   4.10873188e+05  4.10846901e+05  3.29e-12 1.18e-10  1.36e-03     4s
  31   4.10869105e+05  4.10865047e+05  3.78e-13 4.51e-10  2.10e-04     4s
  32   4.10868468e+05  4.10867875e+05  1.51e-13 4.35e-09  3.07e-05     4s
  33   4.10868363e+05  4.10868345e+05  1.20e-11 7.23e-11  9.02e-07     4s
  34   4.10868360e+05  4.10868360e+05  8.63e-11 8.30e-10  9.13e-10     4s

Barrier solved model in 34 iterations and 4.04 seconds (6.14 work units)
Optimal objective 4.10868360e+05

